set NODES := 0 1 2 3 4 5 6 7;

param C :
    0   1   2   3   4   5   6   7 :=
0  -1  426  458  525  883  805  781  274
1  206  -1  786  449  517  732  395  287
2  436  438  -1  588  287  958  281  626
3  288  445  -1  -1  679  -1  -1  511
4  204  751  879  550  -1  -1  613  539
5  792  161  -1  -1  753  -1  735  151
6  415  644  431  738  697  692  -1  185
7  218  706  117  -1  127  -1  522  -1
;

set PROHIBITED := ;

param start_node := 0;
param end_node := 7;
